Reading model...
...model read.
creating competitive generators file...
...competitive generators recorded.
Loading data...
.. real-time data read.
Compiling instance...
...instance created.
Creating Offer Mitigation (model will solve as dispatch if TRUE)...
NOTE: storage offers will not be mitigated
...storage offer mitigation file created
Converting model to MPEC...
...converted
NOTE: initial MIP solve with only storage competitive to get feasible solution
Solving...

Welcome to IBM(R) ILOG(R) CPLEX(R) Interactive Optimizer 12.9.0.0
  with Simplex, Mixed Integer & Barrier Optimizers
5725-A06 5725-A29 5724-Y48 5724-Y49 5724-Y54 5724-Y55 5655-Y21
Copyright IBM Corp. 1988, 2019.  All Rights Reserved.

Type 'help' for a list of available commands.
Type 'help' followed by a command name for more
information on commands.

CPLEX> Logfile 'cplex.log' closed.
Logfile 'C:\Users\llavin\Desktop\test85\logs\tmpqh83xju9.cplex.log' open.
CPLEX> New value for parallel optimization mode: -1
CPLEX> New value for mixed integer optimality gap tolerance: 0.001
CPLEX> New value for deterministic time limit in ticks: 100000
CPLEX> Problem 'C:\Users\llavin\Desktop\test85\logs\tmp5qntrzy_.pyomo.lp' read.
Read time = 0.50 sec. (27.86 ticks)
CPLEX> Problem name         : C:\Users\llavin\Desktop\test85\logs\tmp5qntrzy_.pyomo.lp
Objective sense      : Maximize
Variables            :  107779  [Nneg: 1,  Box: 44054,  Free: 8928,
                                 Binary: 54796]
Objective nonzeros   :   18427
Linear constraints   :  246995  [Less: 82866,  Greater: 118424,  Equal: 45705]
  Nonzeros           :  581830
  RHS nonzeros       :  135592

Variables            : Min LB: -5000.000        Max UB: 1000000.       
Objective nonzeros   : Min   : 0.008333333      Max   : 2500.000       
Linear constraints   :
  Nonzeros           : Min   : 0.008333333      Max   : 1000000.       
  RHS nonzeros       : Min   : 0.008333333      Max   : 1000000.       
CPLEX> CPXPARAM_Parallel                                -1
CPXPARAM_DetTimeLimit                            100000
CPXPARAM_MIP_Tolerances_MIPGap                   0.001
Tried aggregator 3 times.
MIP Presolve eliminated 176466 rows and 36948 columns.
MIP Presolve added 7075 rows and 0 columns.
MIP Presolve modified 50860 coefficients.
Aggregator did 25994 substitutions.
Reduced MIP has 51610 rows, 43967 columns, and 141723 nonzeros.
Reduced MIP has 17390 binaries, 0 generals, 0 SOSs, and 0 indicators.
Presolve time = 0.58 sec. (337.33 ticks)
Probing fixed 706 vars, tightened 7780 bounds.
Probing time = 0.39 sec. (14.58 ticks)
Tried aggregator 2 times.
MIP Presolve eliminated 1609 rows and 1426 columns.
MIP Presolve modified 6522 coefficients.
Aggregator did 50 substitutions.
Reduced MIP has 49951 rows, 42491 columns, and 136889 nonzeros.
Reduced MIP has 16681 binaries, 0 generals, 0 SOSs, and 0 indicators.
Presolve time = 0.28 sec. (250.65 ticks)
Probing fixed 0 vars, tightened 149 bounds.
Probing time = 0.52 sec. (15.58 ticks)
Clique table members: 87104.
MIP emphasis: balance optimality and feasibility.
MIP search method: dynamic search.
Parallel mode: opportunistic, using up to 32 threads.
Root relaxation solution time = 1.16 sec. (2046.80 ticks)

        Nodes                                         Cuts/
   Node  Left     Objective  IInf  Best Integer    Best Bound    ItCnt     Gap

      0     0        0.0000   145                      0.0000    10161         
*     0+    0                            0.0000        0.0000             0.00%
      0     0        cutoff              0.0000        0.0000    10161    0.00%
Elapsed time = 4.41 sec. (3865.66 ticks, tree = 0.01 MB, solutions = 1)

Root node processing (before b&c):
  Real time             =    4.42 sec. (3869.34 ticks)
Parallel b&c, 32 threads:
  Real time             =    0.00 sec. (0.00 ticks)
  Sync time (average)   =    0.00 sec.
  Wait time (average)   =    0.00 sec.
                          ------------
Total (root+branch&cut) =    4.42 sec. (3869.34 ticks)

Solution pool: 1 solution saved.

MIP - Integer optimal solution:  Objective =  9.2472873803e-10
Solution time =    4.44 sec.  Iterations = 10161  Nodes = 0
Deterministic time = 3869.65 ticks  (872.13 ticks/sec)

CPLEX> Incumbent solution written to file 'C:\Users\llavin\Desktop\test85\logs\tmpufjvez2o.cplex.sol'.
CPLEX> NOTE: no warmstart specified for MIP iteration, default behavior is true
NOTE: resolving with all competitive generators using storage-only solution to warmstart
Solving...

Welcome to IBM(R) ILOG(R) CPLEX(R) Interactive Optimizer 12.9.0.0
  with Simplex, Mixed Integer & Barrier Optimizers
5725-A06 5725-A29 5724-Y48 5724-Y49 5724-Y54 5724-Y55 5655-Y21
Copyright IBM Corp. 1988, 2019.  All Rights Reserved.

Type 'help' for a list of available commands.
Type 'help' followed by a command name for more
information on commands.

CPLEX> Logfile 'cplex.log' closed.
Logfile 'C:\Users\llavin\Desktop\test85\logs\tmpi7pzchtd.cplex.log' open.
CPLEX> New value for parallel optimization mode: -1
CPLEX> New value for mixed integer optimality gap tolerance: 0.001
CPLEX> New value for deterministic time limit in ticks: 100000
CPLEX> Problem 'C:\Users\llavin\Desktop\test85\logs\tmp78izjchg.pyomo.lp' read.
Read time = 0.52 sec. (27.91 ticks)
CPLEX> MIP start file 'C:\Users\llavin\Desktop\test85\logs\tmpr4hoqd3z.cplex.mst' read.
CPLEX> Problem name         : C:\Users\llavin\Desktop\test85\logs\tmp78izjchg.pyomo.lp
Objective sense      : Maximize
Variables            :  109219  [Nneg: 1,  Box: 45494,  Free: 8928,
                                 Binary: 54796]
Objective nonzeros   :   19819
Linear constraints   :  246995  [Less: 82866,  Greater: 118424,  Equal: 45705]
  Nonzeros           :  581830
  RHS nonzeros       :  135592

Variables            : Min LB: -5000.000        Max UB: 1000000.       
Objective nonzeros   : Min   : 0.008333333      Max   : 2500.000       
Linear constraints   :
  Nonzeros           : Min   : 0.008333333      Max   : 1000000.       
  RHS nonzeros       : Min   : 0.008333333      Max   : 1000000.       
CPLEX> CPXPARAM_Parallel                                -1
CPXPARAM_DetTimeLimit                            100000
CPXPARAM_MIP_Tolerances_MIPGap                   0.001
1 of 1 MIP starts provided solutions.
MIP start 'm1' defined initial solution with objective 0.0000.
Tried aggregator 3 times.
MIP Presolve eliminated 176466 rows and 38388 columns.
MIP Presolve added 7075 rows and 0 columns.
MIP Presolve modified 50860 coefficients.
Aggregator did 25994 substitutions.
Reduced MIP has 51610 rows, 43967 columns, and 141723 nonzeros.
Reduced MIP has 17390 binaries, 0 generals, 0 SOSs, and 0 indicators.
Presolve time = 0.59 sec. (338.04 ticks)
Probing fixed 706 vars, tightened 7780 bounds.
Probing time = 0.42 sec. (14.58 ticks)
Tried aggregator 2 times.
MIP Presolve eliminated 1609 rows and 1426 columns.
MIP Presolve modified 6522 coefficients.
Aggregator did 50 substitutions.
Reduced MIP has 49951 rows, 42491 columns, and 136889 nonzeros.
Reduced MIP has 16681 binaries, 0 generals, 0 SOSs, and 0 indicators.
Presolve time = 0.28 sec. (250.82 ticks)
Probing fixed 0 vars, tightened 125 bounds.
Probing time = 0.59 sec. (15.65 ticks)
Clique table members: 86714.
MIP emphasis: balance optimality and feasibility.
MIP search method: dynamic search.
Parallel mode: opportunistic, using up to 32 threads.
Root relaxation solution time = 1.28 sec. (2219.77 ticks)

        Nodes                                         Cuts/
   Node  Left     Objective  IInf  Best Integer    Best Bound    ItCnt     Gap

*     0+    0                           -0.0000   1.17217e+07              --- 
      0     0    15785.0893   274       -0.0000    15785.0893    11819     --- 
*     0+    0                            0.0000    15785.0893              --- 
      0     0    15383.2990   333        0.0000     Cuts: 280    12256     --- 
      0     0    15297.6557   342        0.0000     Cuts: 268    12497     --- 
      0     0    15293.2196   336        0.0000     Cuts: 173    12556     --- 
      0     0    15291.4562   335        0.0000      Cuts: 33    12574     --- 
      0     0    15291.1315   336        0.0000      Cuts: 55    12587     --- 
      0     0    15289.1513   278        0.0000      Cuts: 11    12600     --- 
      0     0    15288.9824   278        0.0000     Cuts: 103    12612     --- 
      0     4    15054.9051   271        0.0000      Cuts: 81    12646     --- 
Elapsed time = 13.01 sec. (7148.44 ticks, tree = 0.02 MB, solutions = 2)
    274    63    14004.3542   227        0.0000    15033.4907    14453     --- 
    464   333    13908.2875   248        0.0000    15033.4907    18934     --- 
    658   374    12623.2778   149        0.0000    15033.4907    19506     --- 
    894   716    infeasible              0.0000    15033.4907    29668     --- 
   1166   611        cutoff              0.0000    15033.4907    24852     --- 
   1388   719     3567.4974    87        0.0000    15033.4907    30137     --- 
   1593   797     2464.8498    73        0.0000    15033.4907    36876     --- 
   1877   776     3375.0870    64        0.0000    15033.4907    35509     --- 
   2210   879      631.4237    70        0.0000    15033.4907    40151     --- 
   3371  1469        1.1562    43        0.0000    14689.0084    51091     --- 
Elapsed time = 33.84 sec. (10258.04 ticks, tree = 57.02 MB, solutions = 2)
   4358  2482      805.7903    54        0.0000    14506.8221    90532     --- 
   5288  2909      435.4190    36        0.0000    14386.1389   116558     --- 
   6337  3246        cutoff              0.0000    14157.1824   142877     --- 
   7329  4042     1514.4945    62        0.0000    13885.7137   217842     --- 
   8180  4272      173.5088    69        0.0000    13815.2433   244201     --- 
   8477  4715        cutoff              0.0000     1795.2794   309264     --- 
   8553     7       84.6374    60        0.0000      568.6511   312051     --- 
   8580    11     1073.7478   111        0.0000      568.6511   310238     --- 

GUB cover cuts applied:  2
Implied bound cuts applied:  28
Flow cuts applied:  90
Mixed integer rounding cuts applied:  18
Gomory fractional cuts applied:  5

Root node processing (before b&c):
  Real time             =    8.92 sec. (7010.36 ticks)
Parallel b&c, 32 threads:
  Real time             =   79.74 sec. (21620.54 ticks)
  Sync time (average)   =    9.11 sec.
  Wait time (average)   =    0.33 sec.
                          ------------
Total (root+branch&cut) =   88.66 sec. (28630.89 ticks)

Solution pool: 2 solutions saved.

MIP - Integer optimal solution:  Objective =  3.9123159468e-07
Solution time =   88.69 sec.  Iterations = 312406  Nodes = 8598
Deterministic time = 28631.20 ticks  (322.83 ticks/sec)

CPLEX> Incumbent solution written to file 'C:\Users\llavin\Desktop\test85\logs\tmpux7skh4m.cplex.sol'.
CPLEX> Exporting results... 
